DIMACS_lns/graph-1000-110.col
p edge 1000 1812
e 1 519
e 1 768
e 1 145
e 2 213
e 2 920
e 2 578
e 2 990
e 4 160
e 4 665
e 4 853
e 4 426
e 4 39
e 4 862
e 4 900
e 5 618
e 5 239
e 5 922
e 6 360
e 6 171
e 6 573
e 6 864
e 6 946
e 6 701
e 6 35
e 6 917
e 7 493
e 7 404
e 7 435
e 8 482
e 8 754
e 8 788
e 8 706
e 8 801
e 8 149
e 8 160
e 9 702
e 9 641
e 9 896
e 9 548
e 10 239
e 10 688
e 10 724
e 10 338
e 10 760
e 10 36
e 10 502
e 14 406
e 14 154
e 14 623
e 15 856
e 15 339
e 15 673
e 17 608
e 17 970
e 17 804
e 17 690
e 17 606
e 18 108
e 18 285
e 18 418
e 20 25
e 20 290
e 20 384
e 20 438
e 21 44
e 21 864
e 21 641
e 21 748
e 21 965
e 21 787
e 21 933
e 23 292
e 23 645
e 23 305
e 23 65
e 23 986
e 25 972
e 25 214
e 25 915
e 25 95
e 26 537
e 26 171
e 26 294
e 26 576
e 27 726
e 27 959
e 27 109
e 27 827
e 27 559
e 27 395
e 28 929
e 28 271
e 28 226
e 28 791
e 28 278
e 28 527
e 28 77
e 29 305
e 29 83
e 29 439
e 29 271
e 29 364
e 29 586
e 30 212
e 30 832
e 30 452
e 30 404
e 31 284
e 31 656
e 31 87
e 31 664
e 31 431
e 33 287
e 33 678
e 33 220
e 33 213
e 33 86
e 33 336
e 34 643
e 34 697
e 34 515
e 34 650
e 35 554
e 35 808
e 35 236
e 36 370
e 36 506
e 36 949
e 38 604
e 38 946
e 38 612
e 38 435
e 38 216
e 38 636
e 39 295
e 39 537
e 39 482
e 41 259
e 41 194
e 41 968
e 41 606
e 42 332
e 42 195
e 42 963
e 43 273
e 43 206
e 43 471
e 43 163
e 43 294
e 44 568
e 44 338
e 46 983
e 46 768
e 46 715
e 48 405
e 48 640
e 48 88
e 48 916
e 48 869
e 48 967
e 49 936
e 49 331
e 49 871
e 49 484
e 50 499
e 50 737
e 50 982
e 50 380
e 51 76
e 51 966
e 51 684
e 51 795
e 51 139
e 51 639
e 53 1000
e 53 970
e 53 81
e 53 723
e 53 133
e 54 510
e 54 139
e 54 496
e 55 889
e 55 668
e 55 744
e 56 61
e 56 668
e 56 477
e 57 356
e 57 376
e 57 536
e 58 140
e 58 907
e 58 850
e 58 694
e 60 626
e 60 610
e 60 438
e 60 169
e 61 685
e 61 544
e 61 367
e 61 281
e 61 173
e 61 930
e 62 216
e 62 639
e 62 726
e 62 109
e 63 940
e 63 172
e 63 613
e 64 450
e 64 170
e 64 187
e 64 646
e 65 890
e 65 803
e 65 959
e 65 930
e 65 98
e 65 565
e 68 408
e 68 891
e 68 276
e 68 384
e 68 658
e 69 427
e 69 720
e 69 595
e 69 287
e 69 235
e 69 970
e 69 550
e 70 598
e 70 745
e 70 285
e 70 707
e 70 882
e 71 126
e 71 733
e 71 680
e 73 131
e 73 804
e 73 260
e 73 851
e 73 917
e 73 759
e 73 262
e 74 773
e 74 979
e 74 202
e 75 971
e 75 712
e 75 559
e 75 287
e 76 496
e 76 511
e 76 790
e 76 609
e 77 376
e 77 373
e 77 84
e 79 419
e 79 303
e 79 169
e 79 122
e 79 886
e 80 446
e 80 682
e 80 594
e 80 404
e 81 399
e 81 299
e 81 892
e 81 544
e 83 700
e 83 917
e 83 156
e 83 175
e 83 366
e 83 650
e 84 168
e 84 951
e 85 232
e 85 391
e 85 715
e 86 592
e 86 87
e 87 515
e 87 92
e 87 345
e 87 832
e 88 403
e 88 487
e 88 336
e 88 556
e 89 833
e 89 256
e 89 385
e 89 211
e 91 246
e 91 451
e 91 688
e 91 409
e 91 403
e 91 207
e 92 650
e 92 454
e 93 714
e 93 814
e 93 523
e 93 384
e 95 644
e 95 866
e 97 685
e 97 624
e 97 117
e 97 312
e 98 316
e 98 400
e 98 626
e 98 184
e 98 328
e 98 891
e 99 535
e 99 414
e 99 361
e 99 653
e 100 998
e 100 500
e 100 137
e 100 675
e 100 765
e 100 242
e 100 795
e 101 833
e 101 485
e 101 799
e 101 506
e 101 331
e 102 685
e 102 429
e 102 380
e 102 300
e 102 976
e 102 319
e 102 458
e 102 181
e 102 890
e 103 632
e 103 824
e 103 946
e 103 230
e 103 559
e 103 142
e 104 418
e 104 950
e 104 713
e 104 421
e 104 296
e 104 752
e 104 608
e 104 688
e 105 254
e 105 632
e 105 960
e 106 167
e 106 121
e 106 213
e 106 606
e 106 675
e 106 992
e 107 365
e 107 203
e 107 651
e 107 264
e 108 809
e 108 508
e 108 989
e 109 242
e 109 379
e 110 799
e 110 607
e 110 634
e 110 752
e 110 656
e 113 306
e 113 952
e 113 140
e 114 596
e 114 604
e 114 180
e 114 325
e 117 913
e 117 502
e 118 384
e 118 498
e 118 495
e 119 451
e 119 936
e 119 886
e 119 547
e 120 318
e 120 931
e 120 143
e 120 550
e 120 351
e 120 809
e 121 704
e 121 733
e 121 795
e 121 700
e 121 495
e 122 778
e 122 650
e 122 244
e 122 520
e 126 221
e 126 848
e 126 197
e 126 411
e 126 992
e 126 492
e 126 140
e 126 339
e 127 391
e 127 819
e 127 512
e 127 244
e 128 840
e 128 532
e 128 216
e 128 336
e 128 435
e 129 928
e 129 925
e 129 984
e 129 985
e 129 739
e 129 214
e 130 720
e 130 312
e 130 227
e 130 558
e 131 278
e 131 821
e 131 213
e 132 727
e 132 281
e 132 502
e 132 404
e 132 171
e 133 487
e 133 790
e 133 553
e 133 739
e 136 592
e 136 430
e 136 985
e 137 882
e 137 180
e 137 917
e 138 284
e 138 290
e 138 482
e 139 336
e 139 966
e 139 976
e 139 552
e 139 866
e 139 309
e 140 739
e 140 304
e 140 407
e 140 514
e 140 413
e 140 706
e 140 400
e 140 767
e 140 864
e 141 596
e 141 387
e 141 933
e 141 422
e 141 338
e 142 550
e 142 183
e 142 718
e 142 804
e 142 524
e 142 240
e 143 228
e 143 534
e 144 895
e 144 739
e 144 466
e 144 905
e 144 240
e 145 608
e 145 678
e 146 323
e 146 805
e 146 568
e 146 585
e 146 417
e 149 296
e 149 689
e 150 465
e 150 632
e 150 624
e 151 906
e 151 594
e 151 613
e 151 922
e 151 568
e 152 842
e 152 916
e 152 339
e 152 413
e 154 295
e 154 575
e 154 318
e 154 768
e 154 304
e 156 652
e 156 486
e 156 947
e 157 986
e 157 998
e 157 585
e 157 675
e 158 260
e 158 451
e 158 231
e 160 679
e 160 536
e 161 864
e 161 214
e 161 203
e 161 201
e 161 402
e 161 911
e 161 784
e 161 747
e 163 689
e 163 833
e 163 431
e 163 205
e 163 493
e 163 825
e 164 824
e 164 759
e 164 834
e 164 875
e 164 700
e 165 534
e 165 719
e 165 912
e 165 749
e 165 321
e 165 983
e 166 519
e 166 729
e 166 242
e 166 882
e 166 234
e 167 179
e 167 747
e 167 829
e 168 506
e 168 706
e 168 508
e 168 536
e 169 824
e 169 264
e 169 697
e 170 256
e 170 432
e 170 822
e 171 328
e 172 868
e 172 319
e 173 929
e 173 992
e 173 312
e 174 495
e 174 872
e 174 183
e 174 242
e 174 561
e 174 963
e 174 630
e 175 332
e 175 552
e 175 528
e 175 383
e 176 615
e 176 381
e 176 638
e 179 884
e 179 865
e 179 573
e 179 957
e 180 936
e 180 884
e 180 776
e 180 193
e 180 626
e 180 974
e 180 819
e 180 654
e 180 489
e 180 258
e 180 360
e 181 559
e 181 834
e 181 441
e 182 623
e 182 853
e 182 531
e 182 543
e 183 845
e 183 326
e 183 188
e 184 491
e 184 572
e 184 258
e 184 485
e 184 255
e 184 574
e 184 411
e 184 512
e 185 493
e 185 344
e 185 787
e 185 486
e 187 761
e 187 672
e 187 464
e 187 312
e 188 606
e 188 862
e 188 306
e 189 564
e 189 896
e 189 377
e 193 960
e 193 316
e 193 556
e 193 883
e 194 479
e 194 431
e 194 596
e 194 199
e 194 542
e 194 883
e 194 827
e 195 527
e 195 729
e 197 220
e 197 998
e 198 355
e 198 686
e 198 880
e 198 841
e 198 343
e 199 571
e 199 706
e 199 448
e 200 303
e 200 464
e 200 458
e 200 983
e 200 299
e 200 896
e 200 307
e 201 316
e 201 788
e 201 717
e 201 615
e 201 934
e 202 810
e 202 796
e 203 219
e 203 391
e 203 626
e 204 520
e 204 842
e 204 482
e 204 403
e 204 585
e 205 344
e 205 726
e 205 693
e 206 253
e 206 338
e 206 968
e 206 790
e 207 466
e 207 645
e 208 759
e 208 809
e 208 972
e 209 221
e 209 892
e 209 235
e 209 485
e 210 906
e 210 380
e 210 594
e 210 402
e 211 497
e 211 931
e 211 520
e 212 521
e 212 904
e 212 815
e 212 697
e 213 846
e 213 302
e 213 951
e 213 842
e 214 773
e 214 824
e 214 440
e 214 596
e 214 609
e 216 841
e 217 381
e 217 344
e 217 548
e 217 689
e 219 648
e 219 309
e 219 889
e 219 567
e 219 561
e 220 635
e 220 823
e 220 668
e 220 650
e 221 662
e 221 884
e 221 971
e 221 452
e 222 957
e 222 732
e 222 446
e 222 703
e 225 403
e 225 767
e 225 306
e 226 276
e 226 926
e 226 606
e 227 726
e 227 363
e 227 474
e 227 794
e 228 862
e 228 664
e 228 743
e 230 591
e 230 869
e 230 351
e 231 586
e 231 589
e 232 592
e 232 873
e 232 904
e 232 395
e 232 328
e 232 608
e 233 886
e 233 880
e 233 340
e 234 840
e 234 797
e 235 827
e 235 405
e 236 765
e 236 853
e 236 431
e 239 731
e 239 672
e 239 880
e 240 284
e 240 383
e 240 915
e 240 850
e 240 245
e 242 369
e 242 731
e 242 492
e 242 946
e 244 986
e 244 606
e 245 487
e 245 610
e 245 591
e 245 646
e 245 789
e 246 486
e 246 321
e 253 262
e 253 537
e 254 451
e 254 557
e 254 801
e 254 414
e 255 586
e 255 656
e 255 674
e 255 875
e 255 513
e 256 516
e 256 513
e 256 936
e 256 943
e 258 305
e 258 407
e 258 535
e 258 415
e 258 963
e 259 519
e 259 304
e 259 619
e 259 703
e 260 520
e 260 883
e 261 860
e 261 328
e 261 335
e 262 454
e 262 808
e 263 368
e 263 377
e 263 917
e 264 414
e 265 618
e 265 755
e 265 565
e 266 846
e 266 527
e 266 598
e 266 305
e 268 717
e 268 510
e 268 768
e 268 588
e 268 686
e 268 524
e 271 576
e 271 693
e 271 681
e 271 580
e 271 936
e 271 633
e 273 688
e 273 774
e 274 494
e 274 953
e 274 276
e 276 610
e 276 865
e 276 715
e 277 550
e 277 855
e 277 591
e 277 805
e 277 541
e 277 295
e 278 755
e 278 960
e 278 869
e 278 763
e 279 576
e 279 704
e 279 644
e 280 314
e 280 715
e 280 732
e 280 627
e 281 383
e 281 389
e 281 860
e 284 985
e 284 532
e 284 887
e 285 333
e 285 341
e 285 708
e 286 869
e 286 484
e 286 439
e 286 365
e 286 701
e 287 337
e 287 729
e 290 919
e 290 695
e 290 319
e 290 524
e 290 405
e 290 748
e 292 621
e 292 985
e 292 966
e 294 438
e 295 970
e 296 435
e 296 607
e 296 455
e 296 530
e 296 888
e 299 367
e 299 754
e 300 532
e 300 800
e 301 609
e 301 305
e 301 391
e 301 488
e 302 731
e 302 834
e 303 750
e 303 494
e 303 837
e 303 781
e 303 413
e 303 623
e 304 585
e 304 950
e 304 525
e 304 445
e 305 874
e 305 794
e 305 834
e 306 756
e 306 668
e 306 865
e 307 797
e 307 912
e 307 872
e 309 514
e 309 626
e 309 571
e 309 368
e 309 809
e 309 379
e 312 775
e 314 689
e 314 989
e 314 955
e 315 426
e 315 416
e 315 686
e 316 863
e 316 985
e 316 783
e 318 426
e 318 624
e 318 784
e 319 328
e 319 680
e 319 851
e 319 419
e 321 523
e 321 962
e 323 337
e 323 475
e 323 389
e 323 866
e 323 511
e 323 672
e 324 810
e 324 860
e 324 686
e 324 340
e 325 851
e 325 439
e 325 418
e 326 508
e 326 758
e 326 934
e 326 598
e 326 639
e 328 568
e 328 528
e 329 746
e 329 785
e 329 511
e 329 633
e 331 409
e 331 634
e 331 492
e 332 729
e 332 664
e 332 765
e 332 605
e 333 862
e 333 514
e 333 785
e 335 826
e 335 864
e 336 565
e 336 828
e 336 354
e 337 704
e 338 380
e 338 453
e 338 887
e 339 930
e 339 948
e 339 576
e 339 959
e 339 710
e 339 960
e 340 362
e 340 343
e 340 402
e 341 515
e 341 986
e 341 992
e 343 509
e 344 743
e 344 781
e 344 505
e 345 784
e 345 815
e 345 747
e 345 754
e 345 906
e 348 391
e 348 758
e 348 505
e 349 863
e 349 898
e 349 542
e 349 982
e 349 351
e 351 488
e 351 529
e 354 874
e 354 796
e 354 827
e 354 646
e 354 523
e 355 380
e 355 823
e 355 648
e 355 737
e 356 399
e 356 945
e 356 525
e 356 923
e 357 974
e 357 919
e 357 537
e 360 800
e 360 900
e 360 975
e 360 701
e 360 896
e 360 767
e 361 801
e 361 664
e 361 834
e 361 529
e 361 441
e 362 477
e 362 829
e 362 747
e 362 572
e 362 929
e 362 682
e 363 566
e 363 501
e 363 519
e 363 840
e 364 752
e 364 927
e 364 990
e 365 743
e 365 477
e 366 915
e 366 618
e 366 955
e 367 712
e 367 469
e 368 811
e 368 906
e 368 952
e 369 855
e 369 424
e 370 911
e 370 660
e 370 573
e 370 491
e 370 420
e 370 940
e 371 497
e 371 990
e 371 408
e 373 477
e 373 799
e 373 690
e 374 630
e 374 813
e 374 739
e 374 429
e 374 799
e 376 455
e 377 660
e 377 717
e 377 557
e 377 643
e 379 610
e 380 867
e 380 695
e 380 667
e 380 576
e 381 949
e 381 415
e 381 887
e 381 971
e 383 736
e 383 830
e 384 436
e 384 791
e 384 469
e 385 626
e 385 480
e 387 658
e 387 667
e 387 890
e 387 521
e 389 527
e 389 756
e 389 701
e 389 534
e 390 590
e 390 416
e 390 730
e 391 750
e 392 678
e 392 516
e 392 702
e 395 652
e 397 667
e 397 544
e 397 984
e 399 873
e 400 907
e 400 479
e 402 986
e 403 900
e 403 669
e 404 998
e 404 530
e 405 550
e 405 787
e 405 768
e 406 626
e 406 874
e 406 565
e 406 759
e 407 847
e 408 871
e 409 845
e 409 745
e 411 618
e 411 820
e 413 979
e 414 648
e 414 811
e 414 706
e 414 591
e 415 943
e 415 660
e 415 464
e 416 679
e 417 773
e 417 596
e 417 483
e 418 827
e 418 747
e 419 744
e 419 511
e 420 647
e 420 672
e 420 815
e 420 527
e 421 752
e 421 446
e 421 470
e 422 640
e 422 806
e 424 733
e 424 717
e 424 434
e 426 966
e 426 916
e 427 917
e 427 555
e 427 664
e 427 827
e 429 975
e 429 513
e 429 548
e 429 759
e 430 541
e 430 888
e 432 905
e 432 460
e 433 747
e 433 589
e 433 852
e 433 489
e 433 519
e 434 786
e 434 680
e 434 512
e 434 963
e 434 567
e 435 829
e 435 497
e 436 820
e 436 720
e 436 708
e 438 555
e 438 618
e 438 485
e 438 537
e 438 630
e 439 950
e 440 508
e 440 864
e 440 623
e 441 575
e 441 837
e 441 554
e 441 875
e 445 538
e 445 630
e 445 827
e 446 460
e 446 554
e 446 613
e 446 727
e 446 862
e 448 990
e 448 541
e 448 573
e 448 452
e 450 552
e 450 604
e 450 758
e 451 807
e 451 841
e 451 801
e 452 740
e 452 638
e 452 528
e 452 825
e 453 557
e 453 962
e 453 786
e 454 947
e 454 493
e 454 594
e 455 758
e 455 707
e 458 736
e 458 813
e 458 718
e 458 891
e 458 669
e 460 619
e 464 785
e 464 926
e 464 814
e 464 726
e 465 501
e 465 701
e 465 694
e 466 723
e 466 907
e 468 726
e 468 754
e 468 957
e 468 724
e 469 696
e 469 947
e 469 735
e 470 617
e 470 790
e 470 475
e 471 758
e 471 813
e 471 674
e 473 559
e 473 740
e 473 574
e 474 572
e 474 813
e 474 953
e 475 749
e 477 678
e 477 586
e 477 719
e 479 606
e 479 575
e 480 777
e 480 808
e 480 642
e 482 650
e 482 933
e 482 920
e 482 788
e 482 495
e 483 555
e 483 929
e 483 607
e 483 758
e 483 889
e 484 840
e 485 534
e 485 980
e 486 756
e 486 536
e 486 807
e 486 748
e 487 547
e 487 807
e 487 740
e 487 785
e 487 534
e 488 726
e 488 595
e 489 791
e 489 515
e 489 590
e 491 952
e 492 722
e 492 510
e 494 891
e 494 971
e 496 662
e 496 564
e 496 984
e 496 658
e 497 648
e 498 852
e 498 955
e 499 966
e 499 719
e 500 688
e 500 604
e 501 729
e 502 667
e 502 783
e 502 653
e 505 895
e 505 786
e 505 700
e 505 934
e 506 689
e 506 975
e 508 774
e 508 603
e 509 864
e 509 842
e 510 834
e 510 926
e 510 930
e 511 640
e 511 966
e 511 752
e 511 850
e 512 712
e 513 828
e 513 750
e 514 745
e 514 725
e 514 530
e 514 943
e 515 755
e 515 805
e 515 624
e 516 906
e 519 845
e 519 755
e 520 553
e 521 594
e 523 923
e 523 624
e 525 824
e 525 888
e 527 862
e 528 669
e 529 805
e 529 543
e 530 645
e 530 940
e 530 654
e 531 992
e 531 717
e 531 609
e 534 805
e 534 908
e 535 682
e 535 714
e 535 905
e 536 905
e 536 868
e 536 1000
e 536 795
e 538 946
e 538 929
e 541 592
e 541 752
e 541 694
e 542 568
e 543 967
e 543 764
e 544 708
e 544 547
e 547 850
e 548 916
e 548 799
e 548 624
e 550 725
e 550 925
e 553 759
e 553 554
e 554 947
e 555 847
e 555 987
e 556 763
e 556 862
e 556 775
e 556 684
e 557 633
e 557 701
e 557 575
e 558 921
e 558 641
e 558 821
e 558 620
e 558 931
e 559 746
e 561 762
e 563 834
e 563 967
e 563 706
e 564 804
e 565 626
e 565 690
e 565 720
e 566 847
e 566 669
e 566 590
e 566 854
e 567 927
e 567 662
e 567 807
e 568 636
e 568 573
e 571 928
e 571 845
e 571 696
e 571 626
e 572 896
e 572 867
e 574 639
e 574 810
e 574 735
e 575 919
e 575 761
e 575 691
e 576 609
e 576 646
e 578 621
e 578 784
e 580 898
e 580 665
e 585 755
e 588 795
e 588 609
e 589 784
e 590 724
e 590 739
e 592 976
e 592 791
e 592 754
e 593 732
e 593 826
e 593 975
e 593 615
e 595 717
e 595 644
e 595 945
e 596 872
e 596 610
e 596 645
e 598 967
e 598 647
e 603 639
e 603 684
e 603 895
e 604 775
e 604 999
e 605 895
e 605 750
e 606 786
e 607 672
e 608 645
e 608 904
e 608 763
e 608 672
e 610 717
e 612 696
e 612 934
e 613 856
e 613 994
e 615 620
e 617 825
e 617 947
e 618 945
e 619 984
e 619 706
e 620 827
e 620 964
e 621 807
e 621 762
e 621 675
e 621 711
e 624 787
e 624 766
e 626 650
e 626 972
e 626 689
e 627 640
e 627 711
e 627 712
e 630 717
e 630 749
e 630 743
e 632 796
e 632 889
e 632 652
e 633 674
e 633 695
e 633 651
e 633 762
e 633 733
e 634 927
e 635 650
e 635 800
e 635 960
e 635 679
e 636 905
e 636 783
e 638 972
e 638 873
e 639 773
e 640 927
e 640 717
e 640 880
e 640 847
e 641 739
e 641 868
e 642 868
e 642 837
e 643 733
e 643 747
e 644 762
e 644 810
e 645 773
e 647 863
e 648 921
e 648 842
e 651 916
e 651 719
e 651 827
e 651 682
e 652 971
e 653 688
e 653 700
e 654 998
e 656 686
e 659 799
e 659 908
e 659 712
e 659 823
e 660 916
e 660 931
e 662 681
e 662 689
e 664 955
e 665 787
e 665 957
e 665 846
e 665 680
e 665 722
e 665 915
e 667 766
e 667 768
e 667 887
e 667 912
e 668 948
e 668 761
e 669 794
e 669 826
e 672 691
e 673 781
e 673 811
e 673 999
e 673 813
e 673 832
e 673 951
e 674 853
e 678 856
e 680 722
e 680 740
e 681 753
e 681 982
e 681 739
e 682 797
e 684 833
e 684 968
e 684 749
e 685 755
e 689 693
e 689 759
e 689 730
e 690 783
e 691 907
e 691 871
e 694 732
e 694 994
e 695 837
e 695 845
e 697 814
e 702 775
e 703 810
e 706 735
e 706 829
e 707 949
e 708 789
e 710 940
e 710 1000
e 710 762
e 711 736
e 712 784
e 712 833
e 713 778
e 713 725
e 714 957
e 715 860
e 715 755
e 717 783
e 717 727
e 717 994
e 717 866
e 718 822
e 720 968
e 722 873
e 722 774
e 722 735
e 723 829
e 723 806
e 724 974
e 725 898
e 725 762
e 727 740
e 729 799
e 730 921
e 731 868
e 731 753
e 731 760
e 732 964
e 732 971
e 733 767
e 733 890
e 735 841
e 737 774
e 737 756
e 737 913
e 739 940
e 740 1000
e 740 772
e 743 863
e 743 952
e 744 920
e 745 957
e 745 813
e 746 828
e 746 832
e 748 759
e 749 777
e 749 837
e 751 989
e 751 768
e 751 783
e 752 778
e 753 960
e 753 783
e 755 959
e 758 848
e 759 815
e 760 990
e 761 766
e 761 845
e 761 775
e 762 913
e 762 953
e 762 791
e 763 888
e 764 772
e 764 947
e 764 869
e 768 824
e 768 892
e 772 987
e 774 933
e 774 950
e 775 825
e 775 911
e 776 955
e 776 940
e 777 866
e 777 921
e 777 778
e 781 847
e 781 947
e 785 889
e 785 862
e 787 928
e 789 850
e 790 950
e 791 989
e 791 819
e 794 896
e 797 985
e 801 926
e 801 947
e 801 985
e 803 951
e 803 852
e 805 873
e 805 825
e 805 951
e 806 874
e 808 814
e 809 952
e 810 928
e 811 965
e 813 828
e 813 840
e 814 906
e 820 821
e 822 919
e 824 963
e 824 943
e 824 906
e 826 830
e 826 950
e 827 830
e 830 891
e 830 855
e 832 892
e 837 945
e 837 999
e 841 860
e 841 875
e 841 955
e 846 925
e 847 966
e 848 872
e 852 866
e 854 900
e 854 923
e 854 980
e 860 898
e 860 994
e 862 940
e 863 962
e 865 946
e 867 986
e 873 886
e 875 943
e 882 898
e 886 998
e 892 943
e 895 975
e 896 980
e 900 964
e 908 912
e 921 971
e 922 943
e 945 957
e 948 960
e 952 957
e 964 984
e 965 979
e 967 987
e 967 998
e 980 994
e 983 1000
